
Gurobi 13.0.1 (win64) logging started Fri Apr 10 03:54:47 2026

Set parameter LogFile to value "C:\Users\jiho\code\cloud_vmp_optimization\experiments\2604-chance-2sp-toy\results\runs\chance_2sp_toy_24vm_combination_od_only_od24_sp0_bj0_sc10_cap8_avg20_lam000\solver.log"
Set parameter Threads to value 8
Gurobi Optimizer version 13.0.1 build v13.0.1rc0 (win64 - Windows 11+.0 (26200.2))

CPU model: 13th Gen Intel(R) Core(TM) i9-13900K, instruction set [SSE2|AVX|AVX2]
Thread count: 24 physical cores, 32 logical processors, using up to 8 threads

Non-default parameters:
TimeLimit  7200
MIPGap  0.001
Threads  8

Optimize a model with 20987 rows, 9869 columns and 92888 nonzeros (Min)
Model fingerprint: 0x651ed1ee
Model has 7 linear objective coefficients
Variable types: 1680 continuous, 8189 integer (8189 binary)
Coefficient statistics:
  Matrix range     [4e-02, 4e+01]
  Objective range  [1e+00, 1e+00]
  Bounds range     [1e+00, 1e+00]
  RHS range        [1e-01, 1e+00]

Presolve removed 15847 rows and 5832 columns
Presolve time: 0.17s
Presolved: 5140 rows, 4037 columns, 51320 nonzeros
Variable types: 0 continuous, 4037 integer (4037 binary)
Found heuristic solution: objective 7.0000000
Found heuristic solution: objective 6.0000000

Root relaxation: objective 4.887731e+00, 3682 iterations, 0.09 seconds (0.19 work units)

    Nodes    |    Current Node    |     Objective Bounds      |     Work
 Expl Unexpl |  Obj  Depth IntInf | Incumbent    BestBd   Gap | It/Node Time

     0     0    4.88773    0  532    6.00000    4.88773  18.5%     -    0s
     0     0    5.00000    0  111    6.00000    5.00000  16.7%     -    0s
     0     0    5.00000    0  120    6.00000    5.00000  16.7%     -    0s
     0     0    5.00000    0   30    6.00000    5.00000  16.7%     -    0s
     0     0    5.00000    0   30    6.00000    5.00000  16.7%     -    0s
     0     0    5.00000    0   23    6.00000    5.00000  16.7%     -    1s
     0     0    5.00000    0   29    6.00000    5.00000  16.7%     -    1s
     0     0    5.00000    0   27    6.00000    5.00000  16.7%     -    1s
     0     0    5.00000    0   29    6.00000    5.00000  16.7%     -    1s
     0     0    5.00000    0   17    6.00000    5.00000  16.7%     -    1s
     0     0    5.00000    0   20    6.00000    5.00000  16.7%     -    1s
     0     0    5.00000    0   18    6.00000    5.00000  16.7%     -    1s
     0     0    5.00000    0   18    6.00000    5.00000  16.7%     -    1s
     0     0    5.00000    0   25    6.00000    5.00000  16.7%     -    1s
     0     0    5.00000    0   25    6.00000    5.00000  16.7%     -    1s
     0     0    5.00000    0   25    6.00000    5.00000  16.7%     -    1s
     0     0    5.00000    0   24    6.00000    5.00000  16.7%     -    1s
     0     0    5.00000    0   26    6.00000    5.00000  16.7%     -    1s
     0     0    5.00000    0   24    6.00000    5.00000  16.7%     -    1s
     0     0    5.00000    0   26    6.00000    5.00000  16.7%     -    1s
     0     0    5.00000    0   24    6.00000    5.00000  16.7%     -    1s
     0     0    5.00000    0   20    6.00000    5.00000  16.7%     -    1s
     0     0    5.00000    0   20    6.00000    5.00000  16.7%     -    1s
     0     0    5.00000    0   20    6.00000    5.00000  16.7%     -    1s
H10616     0                       5.0000000    5.00000  0.00%  11.5    2s

Cutting planes:
  Cover: 3
  RLT: 3

Explored 10616 nodes (130174 simplex iterations) in 2.23 seconds (3.22 work units)
Thread count was 8 (of 32 available processors)

Solution count 3: 5 6 7 

Optimal solution found (tolerance 1.00e-03)
Best objective 5.000000000000e+00, best bound 5.000000000000e+00, gap 0.0000%
